1
150
71
30 6
31 5
32 7
33 8
34 4
35 9
36 10
37 1
38 8
39 7
40 7
41 5
42 11
43 5
44 9
45 5
46 8
47 9
48 7
49 7
50 5
51 5
52 2
53 6
54 8
55 5
56 3
57 6
58 4
59 3
60 9
61 7
62 6
63 8
64 7
65 9
66 6
67 7
68 9
69 6
70 10
71 3
72 6
73 8
74 7
75 8
76 8
77 6
78 7
79 8
80 9
81 13
82 6
83 7
84 9
85 6
86 8
87 6
88 11
89 7
90 4
91 5
92 12
93 5
94 10
95 3
96 16
97 8
98 4
99 10
100 11
